c CNF from NumPDDL2CNF, bound 4, -p  -o ../pddls/semaforos-domain-tiempos.pddl -f ../pddls/semaforos-problem.pddl
p cnf 150 875
1 0
2 0
3 0
-4 2 0
-4 3 0
-6 2 0
-6 3 0
-5 4 0
-7 6 0
-4 5 0
-6 7 0
-5 11 0
-5 12 0
-5 -10 0
-5 -9 0
-7 13 0
-7 14 0
-7 -9 0
-7 -10 0
-1 8 0
1 -8 0
-2 5 7 9 0
2 -9 0
-3 5 7 10 0
3 -10 0
5 -11 0
5 -12 0
7 -13 0
7 -14 0
-4 -7 0
-6 -5 0
-15 14 0
-16 8 0
-18 11 0
-19 8 0
-20 8 0
-22 13 0
-22 10 0
-24 12 0
-24 10 0
-26 9 0
-26 10 0
-28 9 0
-28 10 0
-16 15 0
-17 15 0
-19 18 0
-20 18 0
-21 18 0
-23 22 0
-25 24 0
-27 26 0
-29 28 0
-15 -8 16 0
-15 17 0
-18 -8 19 0
-18 -8 20 0
-18 21 0
-22 23 0
-24 25 0
-26 27 0
-28 29 0
-16 37 0
-16 -30 0
-17 32 0
-17 -36 0
-19 37 0
-19 -30 0
-20 31 0
-20 -34 0
-21 32 0
-21 -33 0
-23 38 0
-23 39 0
-23 -32 0
-23 -35 0
-25 40 0
-25 41 0
-25 -32 0
-25 -34 0
-27 33 0
-27 34 0
-27 -32 0
-27 -31 0
-29 35 0
-29 36 0
-29 -31 0
-29 -32 0
-8 16 19 30 0
8 -30 0
-9 27 29 31 0
9 20 -31 0
-10 23 25 27 29 32 0
10 17 21 -32 0
-11 21 33 0
11 27 -33 0
-12 20 25 34 0
12 27 -34 0
-13 23 35 0
13 29 -35 0
-14 17 36 0
14 29 -36 0
16 19 -37 0
23 -38 0
23 -39 0
25 -40 0
25 -41 0
-24 -20 0
-22 -25 0
-22 -27 0
-22 -29 0
-24 -23 0
-24 -27 0
-24 -29 0
-26 -23 0
-26 -25 0
-26 -29 0
-28 -23 0
-28 -25 0
-28 -27 0
-29 -23 0
-29 -17 0
-27 -21 0
-27 -20 0
-27 -25 0
-16 -19 0
-19 -16 0
-20 -16 0
-20 -19 0
-17 -23 0
-17 -25 0
-17 -27 0
-17 -29 0
-21 -23 0
-21 -25 0
-21 -27 0
-21 -29 0
-20 -27 0
-20 -29 0
-42 38 0
-43 37 0
-44 30 0
-46 36 0
-47 37 0
-48 30 0
-50 40 0
-51 37 0
-52 30 0
-54 33 0
-55 37 0
-56 30 0
-57 30 0
-59 41 0
-59 32 0
-61 39 0
-61 32 0
-63 35 0
-63 32 0
-65 34 0
-65 32 0
-67 31 0
-67 32 0
-69 31 0
-69 32 0
-43 42 0
-44 42 0
-45 42 0
-47 46 0
-48 46 0
-49 46 0
-51 50 0
-52 50 0
-53 50 0
-55 54 0
-56 54 0
-57 54 0
-58 54 0
-60 59 0
-62 61 0
-64 63 0
-66 65 0
-68 67 0
-70 69 0
-42 -37 43 0
-42 -30 44 0
-42 45 0
-46 -37 47 0
-46 -30 48 0
-46 49 0
-50 -37 51 0
-50 -30 52 0
-50 53 0
-54 -37 55 0
-54 -30 56 0
-54 -30 57 0
-54 58 0
-59 60 0
-61 62 0
-63 64 0
-65 66 0
-67 68 0
-69 70 0
-43 83 0
-43 -78 0
-44 78 0
-44 -71 0
-45 73 0
-45 -79 0
-47 83 0
-47 -78 0
-48 78 0
-48 -71 0
-49 73 0
-49 -77 0
-51 83 0
-51 -78 0
-52 78 0
-52 -71 0
-53 73 0
-53 -81 0
-55 83 0
-55 -78 0
-56 78 0
-56 -71 0
-57 72 0
-57 -75 0
-58 73 0
-58 -74 0
-60 84 0
-60 85 0
-60 -82 0
-60 -73 0
-62 86 0
-62 84 0
-62 -73 0
-62 -80 0
-64 79 0
-64 80 0
-64 -73 0
-64 -76 0
-66 81 0
-66 82 0
-66 -73 0
-66 -75 0
-68 74 0
-68 75 0
-68 -73 0
-68 -72 0
-70 76 0
-70 77 0
-70 -72 0
-70 -73 0
-30 44 48 52 56 71 0
30 -71 0
-31 68 70 72 0
31 57 -72 0
-32 60 62 64 66 68 70 73 0
32 45 49 53 58 -73 0
-33 58 74 0
33 68 -74 0
-34 57 66 75 0
34 68 -75 0
-35 64 76 0
35 70 -76 0
-36 49 77 0
36 70 -77 0
-37 43 47 51 55 78 0
37 44 48 52 56 -78 0
-38 45 79 0
38 64 -79 0
-39 62 80 0
39 64 -80 0
-40 53 81 0
40 66 -81 0
-41 60 82 0
41 66 -82 0
43 47 51 55 -83 0
60 62 -84 0
60 -85 0
62 -86 0
-65 -57 0
-59 -62 0
-59 -64 0
-59 -66 0
-59 -68 0
-59 -70 0
-61 -60 0
-61 -64 0
-61 -66 0
-61 -68 0
-61 -70 0
-63 -60 0
-63 -62 0
-63 -66 0
-63 -68 0
-63 -70 0
-65 -60 0
-65 -62 0
-65 -64 0
-65 -68 0
-65 -70 0
-67 -60 0
-67 -62 0
-67 -64 0
-67 -66 0
-67 -70 0
-69 -60 0
-69 -62 0
-69 -64 0
-69 -66 0
-69 -68 0
-70 -64 0
-70 -49 0
-68 -58 0
-68 -57 0
-68 -66 0
-66 -53 0
-66 -60 0
-64 -45 0
-64 -62 0
-43 -47 0
-43 -51 0
-43 -55 0
-47 -43 0
-47 -51 0
-47 -55 0
-51 -43 0
-51 -47 0
-51 -55 0
-55 -43 0
-55 -47 0
-55 -51 0
-44 -43 0
-44 -47 0
-44 -51 0
-44 -55 0
-48 -43 0
-48 -47 0
-48 -51 0
-48 -55 0
-52 -43 0
-52 -47 0
-52 -51 0
-52 -55 0
-56 -43 0
-56 -47 0
-56 -51 0
-56 -55 0
-44 -48 0
-44 -52 0
-44 -56 0
-48 -44 0
-48 -52 0
-48 -56 0
-52 -44 0
-52 -48 0
-52 -56 0
-56 -44 0
-56 -48 0
-56 -52 0
-57 -44 0
-57 -48 0
-57 -52 0
-57 -56 0
-45 -60 0
-45 -62 0
-45 -64 0
-45 -66 0
-45 -68 0
-45 -70 0
-49 -60 0
-49 -62 0
-49 -64 0
-49 -66 0
-49 -68 0
-49 -70 0
-53 -60 0
-53 -62 0
-53 -64 0
-53 -66 0
-53 -68 0
-53 -70 0
-58 -60 0
-58 -62 0
-58 -64 0
-58 -66 0
-58 -68 0
-58 -70 0
-57 -68 0
-57 -70 0
-87 86 0
-88 83 0
-89 78 0
-90 71 0
-92 79 0
-93 83 0
-94 78 0
-95 71 0
-97 85 0
-98 83 0
-99 78 0
-100 71 0
-102 77 0
-103 83 0
-104 78 0
-105 71 0
-107 81 0
-108 83 0
-109 78 0
-110 71 0
-112 74 0
-113 83 0
-114 78 0
-115 71 0
-116 71 0
-118 84 0
-118 73 0
-120 82 0
-120 73 0
-122 80 0
-122 73 0
-124 76 0
-124 73 0
-126 75 0
-126 73 0
-128 72 0
-128 73 0
-130 72 0
-130 73 0
-88 87 0
-89 87 0
-90 87 0
-91 87 0
-93 92 0
-94 92 0
-95 92 0
-96 92 0
-98 97 0
-99 97 0
-100 97 0
-101 97 0
-103 102 0
-104 102 0
-105 102 0
-106 102 0
-108 107 0
-109 107 0
-110 107 0
-111 107 0
-113 112 0
-114 112 0
-115 112 0
-116 112 0
-117 112 0
-119 118 0
-121 120 0
-123 122 0
-125 124 0
-127 126 0
-129 128 0
-131 130 0
-87 -83 88 0
-87 -78 89 0
-87 -71 90 0
-87 91 0
-92 -83 93 0
-92 -78 94 0
-92 -71 95 0
-92 96 0
-97 -83 98 0
-97 -78 99 0
-97 -71 100 0
-97 101 0
-102 -83 103 0
-102 -78 104 0
-102 -71 105 0
-102 106 0
-107 -83 108 0
-107 -78 109 0
-107 -71 110 0
-107 111 0
-112 -83 113 0
-112 -78 114 0
-112 -71 115 0
-112 -71 116 0
-112 117 0
-118 119 0
-120 121 0
-122 123 0
-124 125 0
-126 127 0
-128 129 0
-130 131 0
-88 148 0
-88 -144 0
-89 144 0
-89 -139 0
-90 139 0
-90 -132 0
-91 134 0
-91 -147 0
-93 148 0
-93 -144 0
-94 144 0
-94 -139 0
-95 139 0
-95 -132 0
-96 134 0
-96 -140 0
-98 148 0
-98 -144 0
-99 144 0
-99 -139 0
-100 139 0
-100 -132 0
-101 134 0
-101 -146 0
-103 148 0
-103 -144 0
-104 144 0
-104 -139 0
-105 139 0
-105 -132 0
-106 134 0
-106 -138 0
-108 148 0
-108 -144 0
-109 144 0
-109 -139 0
-110 139 0
-110 -132 0
-111 134 0
-111 -142 0
-113 148 0
-113 -144 0
-114 144 0
-114 -139 0
-115 139 0
-115 -132 0
-116 133 0
-116 -136 0
-117 134 0
-117 -135 0
-119 149 0
-119 150 0
-119 -145 0
-119 -134 0
-121 145 0
-121 146 0
-121 -143 0
-121 -134 0
-123 147 0
-123 145 0
-123 -134 0
-123 -141 0
-125 140 0
-125 141 0
-125 -134 0
-125 -137 0
-127 142 0
-127 143 0
-127 -134 0
-127 -136 0
-129 135 0
-129 136 0
-129 -134 0
-129 -133 0
-131 137 0
-131 138 0
-131 -133 0
-131 -134 0
-71 90 95 100 105 110 115 132 0
71 -132 0
-72 129 131 133 0
72 116 -133 0
-73 119 121 123 125 127 129 131 134 0
73 91 96 101 106 111 117 -134 0
-74 117 135 0
74 129 -135 0
-75 116 127 136 0
75 129 -136 0
-76 125 137 0
76 131 -137 0
-77 106 138 0
77 131 -138 0
-78 89 94 99 104 109 114 139 0
78 90 95 100 105 110 115 -139 0
-79 96 140 0
79 125 -140 0
-80 123 141 0
80 125 -141 0
-81 111 142 0
81 127 -142 0
-82 121 143 0
82 127 -143 0
-83 88 93 98 103 108 113 144 0
83 89 94 99 104 109 114 -144 0
-84 119 145 0
84 121 123 -145 0
-85 101 146 0
85 121 -146 0
-86 91 147 0
86 123 -147 0
88 93 98 103 108 113 -148 0
119 -149 0
119 -150 0
-126 -116 0
-118 -121 0
-118 -123 0
-118 -125 0
-118 -127 0
-118 -129 0
-118 -131 0
-120 -119 0
-120 -123 0
-120 -125 0
-120 -127 0
-120 -129 0
-120 -131 0
-122 -119 0
-122 -121 0
-122 -125 0
-122 -127 0
-122 -129 0
-122 -131 0
-124 -119 0
-124 -121 0
-124 -123 0
-124 -127 0
-124 -129 0
-124 -131 0
-126 -119 0
-126 -121 0
-126 -123 0
-126 -125 0
-126 -129 0
-126 -131 0
-128 -119 0
-128 -121 0
-128 -123 0
-128 -125 0
-128 -127 0
-128 -131 0
-130 -119 0
-130 -121 0
-130 -123 0
-130 -125 0
-130 -127 0
-130 -129 0
-131 -125 0
-131 -106 0
-129 -117 0
-129 -116 0
-129 -127 0
-127 -111 0
-127 -121 0
-125 -96 0
-125 -123 0
-123 -91 0
-121 -119 0
-123 -119 0
-121 -101 0
-88 -93 0
-88 -98 0
-88 -103 0
-88 -108 0
-88 -113 0
-93 -88 0
-93 -98 0
-93 -103 0
-93 -108 0
-93 -113 0
-98 -88 0
-98 -93 0
-98 -103 0
-98 -108 0
-98 -113 0
-103 -88 0
-103 -93 0
-103 -98 0
-103 -108 0
-103 -113 0
-108 -88 0
-108 -93 0
-108 -98 0
-108 -103 0
-108 -113 0
-113 -88 0
-113 -93 0
-113 -98 0
-113 -103 0
-113 -108 0
-89 -88 0
-89 -93 0
-89 -98 0
-89 -103 0
-89 -108 0
-89 -113 0
-94 -88 0
-94 -93 0
-94 -98 0
-94 -103 0
-94 -108 0
-94 -113 0
-99 -88 0
-99 -93 0
-99 -98 0
-99 -103 0
-99 -108 0
-99 -113 0
-104 -88 0
-104 -93 0
-104 -98 0
-104 -103 0
-104 -108 0
-104 -113 0
-109 -88 0
-109 -93 0
-109 -98 0
-109 -103 0
-109 -108 0
-109 -113 0
-114 -88 0
-114 -93 0
-114 -98 0
-114 -103 0
-114 -108 0
-114 -113 0
-89 -94 0
-89 -99 0
-89 -104 0
-89 -109 0
-89 -114 0
-94 -89 0
-94 -99 0
-94 -104 0
-94 -109 0
-94 -114 0
-99 -89 0
-99 -94 0
-99 -104 0
-99 -109 0
-99 -114 0
-104 -89 0
-104 -94 0
-104 -99 0
-104 -109 0
-104 -114 0
-109 -89 0
-109 -94 0
-109 -99 0
-109 -104 0
-109 -114 0
-114 -89 0
-114 -94 0
-114 -99 0
-114 -104 0
-114 -109 0
-90 -89 0
-90 -94 0
-90 -99 0
-90 -104 0
-90 -109 0
-90 -114 0
-95 -89 0
-95 -94 0
-95 -99 0
-95 -104 0
-95 -109 0
-95 -114 0
-100 -89 0
-100 -94 0
-100 -99 0
-100 -104 0
-100 -109 0
-100 -114 0
-105 -89 0
-105 -94 0
-105 -99 0
-105 -104 0
-105 -109 0
-105 -114 0
-110 -89 0
-110 -94 0
-110 -99 0
-110 -104 0
-110 -109 0
-110 -114 0
-115 -89 0
-115 -94 0
-115 -99 0
-115 -104 0
-115 -109 0
-115 -114 0
-90 -95 0
-90 -100 0
-90 -105 0
-90 -110 0
-90 -115 0
-95 -90 0
-95 -100 0
-95 -105 0
-95 -110 0
-95 -115 0
-100 -90 0
-100 -95 0
-100 -105 0
-100 -110 0
-100 -115 0
-105 -90 0
-105 -95 0
-105 -100 0
-105 -110 0
-105 -115 0
-110 -90 0
-110 -95 0
-110 -100 0
-110 -105 0
-110 -115 0
-115 -90 0
-115 -95 0
-115 -100 0
-115 -105 0
-115 -110 0
-116 -90 0
-116 -95 0
-116 -100 0
-116 -105 0
-116 -110 0
-116 -115 0
-91 -119 0
-91 -121 0
-91 -123 0
-91 -125 0
-91 -127 0
-91 -129 0
-91 -131 0
-96 -119 0
-96 -121 0
-96 -123 0
-96 -125 0
-96 -127 0
-96 -129 0
-96 -131 0
-101 -119 0
-101 -121 0
-101 -123 0
-101 -125 0
-101 -127 0
-101 -129 0
-101 -131 0
-106 -119 0
-106 -121 0
-106 -123 0
-106 -125 0
-106 -127 0
-106 -129 0
-106 -131 0
-111 -119 0
-111 -121 0
-111 -123 0
-111 -125 0
-111 -127 0
-111 -129 0
-111 -131 0
-117 -119 0
-117 -121 0
-117 -123 0
-117 -125 0
-117 -127 0
-117 -129 0
-117 -131 0
-116 -129 0
-116 -131 0
149 0
